
  32    1
  10

   0   0   6 2 3 4 6 7 15 
   9   1   4 12 11 10 8 
   4   1   3 12 9 5 
   6   4   3 14 9 5 
   1  10   5 17 16 13 11 10 
  10   3   6 30 20 19 17 12 10 
   2   4   6 30 21 20 19 17 10 
   2   4   5 20 19 16 14 9 
   2   6   6 31 30 29 26 21 17 
   5   6   5 31 27 26 24 18 
   8   5   5 29 26 25 21 20 
   1   4   4 29 25 24 21 
   7   3   4 30 29 22 19 
   7   4   3 30 29 17 
   4   2   3 30 24 22 
  10   2   2 30 21 
   3   2   2 25 22 
   9   3   2 29 22 
   7   4   2 31 23 
   7   7   2 24 23 
   7   4   1 22 
   7   2   1 23 
   9   5   1 28 
   9   4   1 28 
   8   5   1 28 
   1   4   1 28 
   8   4   1 28 
   1   4   1 32
   3   4   1 32
   3   6   1 32
   7   3   1 32
   0   0   0 
